(set-logic QF_FF)
(define-sort FF0 () (_ FiniteField 21888242871839275222246405745257275088548364400416034343698204186575808495617))
(declare-fun s_103 () FF0)
(declare-fun s_104 () FF0)
(declare-fun s_105 () FF0)
(declare-fun s_106 () FF0)
(declare-fun s_107 () FF0)
(declare-fun s_108 () FF0)
(declare-fun s_109 () FF0)
(declare-fun s_110 () FF0)
(declare-fun s_111 () FF0)
(declare-fun s_112 () FF0)
(declare-fun s_113 () FF0)
(declare-fun s_114 () FF0)
(declare-fun s_115 () FF0)
(declare-fun s_116 () FF0)
(declare-fun s_117 () FF0)
(declare-fun s_118 () FF0)
(declare-fun s_119 () FF0)
(declare-fun s_120 () FF0)
(declare-fun s_121 () FF0)
(declare-fun s_122 () FF0)
(declare-fun s_123 () FF0)
(declare-fun s_124 () FF0)
(declare-fun s_125 () FF0)
(declare-fun s_126 () FF0)
(declare-fun s_127 () FF0)
(declare-fun s_128 () FF0)
(declare-fun s_129 () FF0)
(declare-fun s_130 () FF0)
(declare-fun s_131 () FF0)
(declare-fun s_132 () FF0)
(declare-fun s_133 () FF0)
(declare-fun s_134 () FF0)
(declare-fun s_135 () FF0)
(declare-fun s_136 () FF0)
(declare-fun s_137 () FF0)
(declare-fun s_138 () FF0)
(declare-fun s_139 () FF0)
(declare-fun s_140 () FF0)
(declare-fun s_141 () FF0)
(declare-fun s_142 () FF0)
(declare-fun s_143 () FF0)
(declare-fun s_144 () FF0)
(declare-fun s_145 () FF0)
(declare-fun s_146 () FF0)
(declare-fun s_147 () FF0)
(declare-fun s_148 () FF0)
(declare-fun s_149 () FF0)
(declare-fun s_150 () FF0)
(declare-fun s_151 () FF0)
(declare-fun s_152 () FF0)
(declare-fun s_153 () FF0)
(declare-fun s_154 () FF0)
(declare-fun s_155 () FF0)
(declare-fun s_156 () FF0)
(declare-fun s_157 () FF0)
(declare-fun s_158 () FF0)
(declare-fun s_159 () FF0)
(declare-fun s_160 () FF0)
(declare-fun s_161 () FF0)
(declare-fun s_162 () FF0)
(declare-fun s_163 () FF0)
(declare-fun s_164 () FF0)
(declare-fun s_165 () FF0)
(declare-fun s_166 () FF0)
(declare-fun s_167 () FF0)
(declare-fun s_168 () FF0)
(declare-fun s_169 () FF0)
(declare-fun s_170 () FF0)
(declare-fun s_171 () FF0)
(declare-fun s_172 () FF0)
(declare-fun s_173 () FF0)
(declare-fun s_174 () FF0)
(declare-fun s_175 () FF0)
(declare-fun s_176 () FF0)
(declare-fun s_177 () FF0)
(declare-fun s_178 () FF0)
(declare-fun s_179 () FF0)
(declare-fun s_180 () FF0)
(declare-fun s_181 () FF0)
(declare-fun s_182 () FF0)
(declare-fun s_183 () FF0)
(declare-fun s_184 () FF0)
(declare-fun s_185 () FF0)
(declare-fun s_186 () FF0)
(declare-fun s_187 () FF0)
(declare-fun s_188 () FF0)
(declare-fun s_189 () FF0)
(declare-fun s_190 () FF0)
(declare-fun s_191 () FF0)
(declare-fun s_192 () FF0)
(declare-fun s_193 () FF0)
(declare-fun s_194 () FF0)
(declare-fun s_195 () FF0)
(declare-fun s_196 () FF0)
(declare-fun s_197 () FF0)
(declare-fun s_198 () FF0)
(declare-fun s_199 () FF0)
(declare-fun saux_103 () FF0)
(declare-fun saux_104 () FF0)
(declare-fun saux_105 () FF0)
(declare-fun saux_106 () FF0)
(declare-fun saux_107 () FF0)
(declare-fun saux_108 () FF0)
(declare-fun saux_109 () FF0)
(declare-fun saux_110 () FF0)
(declare-fun saux_111 () FF0)
(declare-fun saux_112 () FF0)
(declare-fun saux_113 () FF0)
(declare-fun saux_114 () FF0)
(declare-fun saux_115 () FF0)
(declare-fun saux_116 () FF0)
(declare-fun saux_117 () FF0)
(declare-fun saux_118 () FF0)
(declare-fun saux_119 () FF0)
(declare-fun saux_120 () FF0)
(declare-fun saux_121 () FF0)
(declare-fun saux_122 () FF0)
(declare-fun saux_123 () FF0)
(declare-fun saux_124 () FF0)
(declare-fun saux_125 () FF0)
(declare-fun saux_126 () FF0)
(declare-fun saux_127 () FF0)
(declare-fun saux_128 () FF0)
(declare-fun saux_129 () FF0)
(declare-fun saux_130 () FF0)
(declare-fun saux_131 () FF0)
(declare-fun saux_132 () FF0)
(declare-fun saux_133 () FF0)
(declare-fun saux_134 () FF0)
(declare-fun saux_135 () FF0)
(declare-fun saux_136 () FF0)
(declare-fun saux_137 () FF0)
(declare-fun saux_138 () FF0)
(declare-fun saux_139 () FF0)
(declare-fun saux_140 () FF0)
(declare-fun saux_141 () FF0)
(declare-fun saux_142 () FF0)
(declare-fun saux_143 () FF0)
(declare-fun saux_144 () FF0)
(declare-fun saux_145 () FF0)
(declare-fun saux_146 () FF0)
(declare-fun saux_147 () FF0)
(declare-fun saux_148 () FF0)
(declare-fun saux_149 () FF0)
(declare-fun saux_150 () FF0)
(declare-fun saux_151 () FF0)
(declare-fun saux_152 () FF0)
(declare-fun saux_153 () FF0)
(declare-fun saux_154 () FF0)
(declare-fun saux_155 () FF0)
(declare-fun saux_156 () FF0)
(declare-fun saux_157 () FF0)
(declare-fun saux_158 () FF0)
(declare-fun saux_159 () FF0)
(declare-fun saux_160 () FF0)
(declare-fun saux_161 () FF0)
(declare-fun saux_162 () FF0)
(declare-fun saux_163 () FF0)
(declare-fun saux_164 () FF0)
(declare-fun saux_165 () FF0)
(declare-fun saux_166 () FF0)
(declare-fun saux_167 () FF0)
(declare-fun saux_168 () FF0)
(declare-fun saux_169 () FF0)
(declare-fun saux_170 () FF0)
(declare-fun saux_171 () FF0)
(declare-fun saux_172 () FF0)
(declare-fun saux_173 () FF0)
(declare-fun saux_174 () FF0)
(declare-fun saux_175 () FF0)
(declare-fun saux_176 () FF0)
(declare-fun saux_177 () FF0)
(declare-fun saux_178 () FF0)
(declare-fun saux_179 () FF0)
(declare-fun saux_180 () FF0)
(declare-fun saux_181 () FF0)
(declare-fun saux_182 () FF0)
(declare-fun saux_183 () FF0)
(declare-fun saux_184 () FF0)
(declare-fun saux_185 () FF0)
(declare-fun saux_186 () FF0)
(declare-fun saux_187 () FF0)
(declare-fun saux_188 () FF0)
(declare-fun saux_189 () FF0)
(declare-fun saux_190 () FF0)
(declare-fun saux_191 () FF0)
(declare-fun saux_192 () FF0)
(declare-fun saux_193 () FF0)
(declare-fun saux_194 () FF0)
(declare-fun saux_195 () FF0)
(declare-fun saux_196 () FF0)
(declare-fun saux_197 () FF0)
(declare-fun saux_198 () FF0)
(declare-fun saux_199 () FF0)
(assert (= (as ff0 FF0) (ff.mul (ff.add s_103 (as ff21888242871839275222246405745257275088548364400416034343698204186575808495616 FF0) ) s_103 )))
(assert (= (as ff0 FF0) (ff.mul (ff.add (as ff21888242871839275222246405745257275088548364400416034343698204186575808495616 FF0) s_104 ) s_104 )))
(assert (= (as ff0 FF0) (ff.mul (ff.add (as ff21888242871839275222246405745257275088548364400416034343698204186575808495616 FF0) s_105 ) s_105 )))
(assert (= (as ff0 FF0) (ff.mul (ff.add (as ff21888242871839275222246405745257275088548364400416034343698204186575808495616 FF0) s_106 ) s_106 )))
(assert (= (as ff0 FF0) (ff.mul (ff.add s_107 (as ff21888242871839275222246405745257275088548364400416034343698204186575808495616 FF0) ) s_107 )))
(assert (= (as ff0 FF0) (ff.mul (ff.add (as ff21888242871839275222246405745257275088548364400416034343698204186575808495616 FF0) s_108 ) s_108 )))
(assert (= (as ff0 FF0) (ff.mul (ff.add (as ff21888242871839275222246405745257275088548364400416034343698204186575808495616 FF0) s_109 ) s_109 )))
(assert (= (as ff0 FF0) (ff.mul (ff.add s_110 (as ff21888242871839275222246405745257275088548364400416034343698204186575808495616 FF0) ) s_110 )))
(assert (= (as ff0 FF0) (ff.mul (ff.add (as ff21888242871839275222246405745257275088548364400416034343698204186575808495616 FF0) s_111 ) s_111 )))
(assert (= (as ff0 FF0) (ff.mul (ff.add (as ff21888242871839275222246405745257275088548364400416034343698204186575808495616 FF0) s_112 ) s_112 )))
(assert (= (as ff0 FF0) (ff.mul (ff.add (as ff21888242871839275222246405745257275088548364400416034343698204186575808495616 FF0) s_113 ) s_113 )))
(assert (= (as ff0 FF0) (ff.mul (ff.add (as ff21888242871839275222246405745257275088548364400416034343698204186575808495616 FF0) s_114 ) s_114 )))
(assert (= (as ff0 FF0) (ff.mul (ff.add (as ff21888242871839275222246405745257275088548364400416034343698204186575808495616 FF0) s_115 ) s_115 )))
(assert (= (as ff0 FF0) (ff.mul (ff.add s_116 (as ff21888242871839275222246405745257275088548364400416034343698204186575808495616 FF0) ) s_116 )))
(assert (= (as ff0 FF0) (ff.mul (ff.add s_117 (as ff21888242871839275222246405745257275088548364400416034343698204186575808495616 FF0) ) s_117 )))
(assert (= (as ff0 FF0) (ff.mul (ff.add (as ff21888242871839275222246405745257275088548364400416034343698204186575808495616 FF0) s_118 ) s_118 )))
(assert (= (as ff0 FF0) (ff.mul (ff.add s_119 (as ff21888242871839275222246405745257275088548364400416034343698204186575808495616 FF0) ) s_119 )))
(assert (= (as ff0 FF0) (ff.mul (ff.add (as ff21888242871839275222246405745257275088548364400416034343698204186575808495616 FF0) s_120 ) s_120 )))
(assert (= (as ff0 FF0) (ff.mul (ff.add (as ff21888242871839275222246405745257275088548364400416034343698204186575808495616 FF0) s_121 ) s_121 )))
(assert (= (as ff0 FF0) (ff.mul (ff.add (as ff21888242871839275222246405745257275088548364400416034343698204186575808495616 FF0) s_122 ) s_122 )))
(assert (= (as ff0 FF0) (ff.mul (ff.add (as ff21888242871839275222246405745257275088548364400416034343698204186575808495616 FF0) s_123 ) s_123 )))
(assert (= (as ff0 FF0) (ff.mul (ff.add s_124 (as ff21888242871839275222246405745257275088548364400416034343698204186575808495616 FF0) ) s_124 )))
(assert (= (as ff0 FF0) (ff.mul (ff.add s_125 (as ff21888242871839275222246405745257275088548364400416034343698204186575808495616 FF0) ) s_125 )))
(assert (= (as ff0 FF0) (ff.mul (ff.add s_126 (as ff21888242871839275222246405745257275088548364400416034343698204186575808495616 FF0) ) s_126 )))
(assert (= (as ff0 FF0) (ff.mul (ff.add s_127 (as ff21888242871839275222246405745257275088548364400416034343698204186575808495616 FF0) ) s_127 )))
(assert (= (as ff0 FF0) (ff.mul (ff.add s_128 (as ff21888242871839275222246405745257275088548364400416034343698204186575808495616 FF0) ) s_128 )))
(assert (= (as ff0 FF0) (ff.mul (ff.add s_129 (as ff21888242871839275222246405745257275088548364400416034343698204186575808495616 FF0) ) s_129 )))
(assert (= (as ff0 FF0) (ff.mul (ff.add (as ff21888242871839275222246405745257275088548364400416034343698204186575808495616 FF0) s_130 ) s_130 )))
(assert (= (as ff0 FF0) (ff.mul (ff.add (as ff21888242871839275222246405745257275088548364400416034343698204186575808495616 FF0) s_131 ) s_131 )))
(assert (= (as ff0 FF0) (ff.mul (ff.add s_132 (as ff21888242871839275222246405745257275088548364400416034343698204186575808495616 FF0) ) s_132 )))
(assert (= (as ff0 FF0) (ff.mul (ff.add s_133 (as ff21888242871839275222246405745257275088548364400416034343698204186575808495616 FF0) ) s_133 )))
(assert (= (as ff0 FF0) (ff.mul (ff.add s_134 (as ff21888242871839275222246405745257275088548364400416034343698204186575808495616 FF0) ) s_134 )))
(assert (= (as ff0 FF0) (ff.mul (ff.add s_135 (as ff21888242871839275222246405745257275088548364400416034343698204186575808495616 FF0) ) s_135 )))
(assert (= (ff.add (ff.mul s_130 (as ff134217728 FF0)) (ff.mul s_112 (as ff512 FF0)) (ff.mul s_146 (as ff21888242871839275222246405745257275088548364400416034343698204186575808494593 FF0)) (ff.mul s_128 (as ff33554432 FF0)) (ff.mul s_152 (as ff21888242871839275222246405745257275088548364400416034343698204186575808430081 FF0)) (ff.mul s_160 (as ff21888242871839275222246405745257275088548364400416034343698204186575791718401 FF0)) (ff.mul s_171 (as ff21888242871839275222246405745257275088548364400416034343698204186575808495609 FF0)) (ff.mul s_193 (as ff21888242871839275222246405745257275088548364400416034343698204186575774941185 FF0)) (ff.mul s_136 (as ff21888242871839275222246405745257275088548364400416034343698204186575808495616 FF0)) (ff.mul s_168 (as ff21888242871839275222246405745257275088548364400416034343698204186575808495616 FF0)) (ff.mul s_144 (as ff21888242871839275222246405745257275088548364400416034343698204186575808495361 FF0)) (ff.mul s_120 (as ff131072 FF0)) (ff.mul s_184 (as ff21888242871839275222246405745257275088548364400416034343698204186575808430081 FF0)) (ff.mul s_142 (as ff21888242871839275222246405745257275088548364400416034343698204186575808495553 FF0)) (ff.mul s_115 (as ff4096 FF0)) (ff.mul s_126 (as ff8388608 FF0)) (ff.mul s_119 (as ff65536 FF0)) (ff.mul s_151 (as ff21888242871839275222246405745257275088548364400416034343698204186575808462849 FF0)) (ff.mul s_191 (as ff21888242871839275222246405745257275088548364400416034343698204186575800107009 FF0)) (ff.mul s_121 (as ff262144 FF0)) (ff.mul s_131 (as ff268435456 FF0)) (ff.mul s_186 (as ff21888242871839275222246405745257275088548364400416034343698204186575808233473 FF0)) (ff.mul s_177 (as ff21888242871839275222246405745257275088548364400416034343698204186575808495105 FF0)) (ff.mul s_153 (as ff21888242871839275222246405745257275088548364400416034343698204186575808364545 FF0)) (ff.mul s_132 (as ff536870912 FF0)) (ff.mul s_167 (as ff21888242871839275222246405745257275088548364400416034343698204186573661011969 FF0)) (ff.mul s_139 (as ff21888242871839275222246405745257275088548364400416034343698204186575808495609 FF0)) (ff.mul s_198 (as ff21888242871839275222246405745257275088548364400416034343698204186574734753793 FF0)) (ff.mul s_175 (as ff21888242871839275222246405745257275088548364400416034343698204186575808495489 FF0)) (ff.mul s_133 (as ff1073741824 FF0)) (ff.mul s_143 (as ff21888242871839275222246405745257275088548364400416034343698204186575808495489 FF0)) (ff.mul s_140 (as ff21888242871839275222246405745257275088548364400416034343698204186575808495601 FF0)) (ff.mul s_147 (as ff21888242871839275222246405745257275088548364400416034343698204186575808493569 FF0)) (ff.mul s_182 (as ff21888242871839275222246405745257275088548364400416034343698204186575808479233 FF0)) (ff.mul s_117 (as ff16384 FF0)) (ff.mul s_164 (as ff21888242871839275222246405745257275088548364400416034343698204186575540060161 FF0)) (ff.mul s_135 (as ff4294967296 FF0)) (ff.mul s_169 (as ff21888242871839275222246405745257275088548364400416034343698204186575808495615 FF0)) (ff.mul s_188 (as ff21888242871839275222246405745257275088548364400416034343698204186575807447041 FF0)) (ff.mul s_122 (as ff524288 FF0)) (ff.mul s_137 (as ff21888242871839275222246405745257275088548364400416034343698204186575808495615 FF0)) (ff.mul s_157 (as ff21888242871839275222246405745257275088548364400416034343698204186575806398465 FF0)) (ff.mul s_196 (as ff21888242871839275222246405745257275088548364400416034343698204186575540060161 FF0)) (ff.mul s_148 (as ff21888242871839275222246405745257275088548364400416034343698204186575808491521 FF0)) (ff.mul s_190 (as ff21888242871839275222246405745257275088548364400416034343698204186575804301313 FF0)) (ff.mul s_125 (as ff4194304 FF0)) (ff.mul s_172 (as ff21888242871839275222246405745257275088548364400416034343698204186575808495601 FF0)) (ff.mul s_116 (as ff8192 FF0)) (ff.mul s_110 (as ff128 FF0)) (ff.mul s_108 (as ff32 FF0)) (ff.mul s_189 (as ff21888242871839275222246405745257275088548364400416034343698204186575806398465 FF0)) (ff.mul s_181 (as ff21888242871839275222246405745257275088548364400416034343698204186575808487425 FF0)) (ff.mul s_187 (as ff21888242871839275222246405745257275088548364400416034343698204186575807971329 FF0)) (ff.mul s_183 (as ff21888242871839275222246405745257275088548364400416034343698204186575808462849 FF0)) (ff.mul s_194 (as ff21888242871839275222246405745257275088548364400416034343698204186575741386753 FF0)) (ff.mul s_111 (as ff256 FF0)) (ff.mul s_145 (as ff21888242871839275222246405745257275088548364400416034343698204186575808495105 FF0)) (ff.mul s_129 (as ff67108864 FF0)) (ff.mul s_163 (as ff21888242871839275222246405745257275088548364400416034343698204186575674277889 FF0)) (ff.mul s_104 (as ff2 FF0)) (ff.mul s_197 (as ff21888242871839275222246405745257275088548364400416034343698204186575271624705 FF0)) (ff.mul s_150 (as ff21888242871839275222246405745257275088548364400416034343698204186575808479233 FF0)) (ff.mul s_138 (as ff21888242871839275222246405745257275088548364400416034343698204186575808495613 FF0)) (ff.mul s_156 (as ff21888242871839275222246405745257275088548364400416034343698204186575807447041 FF0)) (ff.mul s_124 (as ff2097152 FF0)) (ff.mul s_113 (as ff1024 FF0)) (ff.mul s_179 (as ff21888242871839275222246405745257275088548364400416034343698204186575808493569 FF0)) (ff.mul s_118 (as ff32768 FF0)) (ff.mul s_166 (as ff21888242871839275222246405745257275088548364400416034343698204186574734753793 FF0)) (ff.mul s_105 (as ff4 FF0)) (ff.mul s_185 (as ff21888242871839275222246405745257275088548364400416034343698204186575808364545 FF0)) (ff.mul s_123 (as ff1048576 FF0)) (ff.mul s_107 (as ff16 FF0)) (ff.mul s_180 (as ff21888242871839275222246405745257275088548364400416034343698204186575808491521 FF0)) (ff.mul s_141 (as ff21888242871839275222246405745257275088548364400416034343698204186575808495585 FF0)) (ff.mul s_173 (as ff21888242871839275222246405745257275088548364400416034343698204186575808495585 FF0)) (ff.mul s_176 (as ff21888242871839275222246405745257275088548364400416034343698204186575808495361 FF0)) (ff.mul s_155 (as ff21888242871839275222246405745257275088548364400416034343698204186575807971329 FF0)) (ff.mul s_158 (as ff21888242871839275222246405745257275088548364400416034343698204186575804301313 FF0)) (ff.mul s_161 (as ff21888242871839275222246405745257275088548364400416034343698204186575774941185 FF0)) (ff.mul s_165 (as ff21888242871839275222246405745257275088548364400416034343698204186575271624705 FF0)) (ff.mul s_149 (as ff21888242871839275222246405745257275088548364400416034343698204186575808487425 FF0)) (ff.mul s_162 (as ff21888242871839275222246405745257275088548364400416034343698204186575741386753 FF0)) (ff.mul s_114 (as ff2048 FF0)) (ff.mul s_127 (as ff16777216 FF0)) (ff.mul s_154 (as ff21888242871839275222246405745257275088548364400416034343698204186575808233473 FF0)) (ff.mul s_170 (as ff21888242871839275222246405745257275088548364400416034343698204186575808495613 FF0)) (ff.mul s_159 (as ff21888242871839275222246405745257275088548364400416034343698204186575800107009 FF0)) (ff.mul s_174 (as ff21888242871839275222246405745257275088548364400416034343698204186575808495553 FF0)) (ff.mul s_199 (as ff21888242871839275222246405745257275088548364400416034343698204186573661011969 FF0)) (ff.mul s_192 (as ff21888242871839275222246405745257275088548364400416034343698204186575791718401 FF0)) (ff.mul s_109 (as ff64 FF0)) (ff.mul s_195 (as ff21888242871839275222246405745257275088548364400416034343698204186575674277889 FF0)) (ff.mul s_178 (as ff21888242871839275222246405745257275088548364400416034343698204186575808494593 FF0)) (ff.mul s_106 (as ff8 FF0)) s_103 (ff.mul s_134 (as ff2147483648 FF0)) ) (as ff0 FF0)))
(assert (= (as ff0 FF0) (ff.mul (ff.add (as ff21888242871839275222246405745257275088548364400416034343698204186575808495616 FF0) saux_103 ) saux_103 )))
(assert (= (as ff0 FF0) (ff.mul (ff.add (as ff21888242871839275222246405745257275088548364400416034343698204186575808495616 FF0) saux_104 ) saux_104 )))
(assert (= (as ff0 FF0) (ff.mul (ff.add saux_105 (as ff21888242871839275222246405745257275088548364400416034343698204186575808495616 FF0) ) saux_105 )))
(assert (= (as ff0 FF0) (ff.mul (ff.add (as ff21888242871839275222246405745257275088548364400416034343698204186575808495616 FF0) saux_106 ) saux_106 )))
(assert (= (as ff0 FF0) (ff.mul (ff.add (as ff21888242871839275222246405745257275088548364400416034343698204186575808495616 FF0) saux_107 ) saux_107 )))
(assert (= (as ff0 FF0) (ff.mul (ff.add (as ff21888242871839275222246405745257275088548364400416034343698204186575808495616 FF0) saux_108 ) saux_108 )))
(assert (= (as ff0 FF0) (ff.mul (ff.add (as ff21888242871839275222246405745257275088548364400416034343698204186575808495616 FF0) saux_109 ) saux_109 )))
(assert (= (as ff0 FF0) (ff.mul (ff.add saux_110 (as ff21888242871839275222246405745257275088548364400416034343698204186575808495616 FF0) ) saux_110 )))
(assert (= (as ff0 FF0) (ff.mul (ff.add saux_111 (as ff21888242871839275222246405745257275088548364400416034343698204186575808495616 FF0) ) saux_111 )))
(assert (= (as ff0 FF0) (ff.mul (ff.add (as ff21888242871839275222246405745257275088548364400416034343698204186575808495616 FF0) saux_112 ) saux_112 )))
(assert (= (as ff0 FF0) (ff.mul (ff.add saux_113 (as ff21888242871839275222246405745257275088548364400416034343698204186575808495616 FF0) ) saux_113 )))
(assert (= (as ff0 FF0) (ff.mul (ff.add saux_114 (as ff21888242871839275222246405745257275088548364400416034343698204186575808495616 FF0) ) saux_114 )))
(assert (= (as ff0 FF0) (ff.mul (ff.add saux_115 (as ff21888242871839275222246405745257275088548364400416034343698204186575808495616 FF0) ) saux_115 )))
(assert (= (as ff0 FF0) (ff.mul (ff.add saux_116 (as ff21888242871839275222246405745257275088548364400416034343698204186575808495616 FF0) ) saux_116 )))
(assert (= (as ff0 FF0) (ff.mul (ff.add saux_117 (as ff21888242871839275222246405745257275088548364400416034343698204186575808495616 FF0) ) saux_117 )))
(assert (= (as ff0 FF0) (ff.mul (ff.add saux_118 (as ff21888242871839275222246405745257275088548364400416034343698204186575808495616 FF0) ) saux_118 )))
(assert (= (as ff0 FF0) (ff.mul (ff.add (as ff21888242871839275222246405745257275088548364400416034343698204186575808495616 FF0) saux_119 ) saux_119 )))
(assert (= (as ff0 FF0) (ff.mul (ff.add (as ff21888242871839275222246405745257275088548364400416034343698204186575808495616 FF0) saux_120 ) saux_120 )))
(assert (= (as ff0 FF0) (ff.mul (ff.add (as ff21888242871839275222246405745257275088548364400416034343698204186575808495616 FF0) saux_121 ) saux_121 )))
(assert (= (as ff0 FF0) (ff.mul (ff.add saux_122 (as ff21888242871839275222246405745257275088548364400416034343698204186575808495616 FF0) ) saux_122 )))
(assert (= (as ff0 FF0) (ff.mul (ff.add saux_123 (as ff21888242871839275222246405745257275088548364400416034343698204186575808495616 FF0) ) saux_123 )))
(assert (= (as ff0 FF0) (ff.mul (ff.add (as ff21888242871839275222246405745257275088548364400416034343698204186575808495616 FF0) saux_124 ) saux_124 )))
(assert (= (as ff0 FF0) (ff.mul (ff.add saux_125 (as ff21888242871839275222246405745257275088548364400416034343698204186575808495616 FF0) ) saux_125 )))
(assert (= (as ff0 FF0) (ff.mul (ff.add (as ff21888242871839275222246405745257275088548364400416034343698204186575808495616 FF0) saux_126 ) saux_126 )))
(assert (= (as ff0 FF0) (ff.mul (ff.add saux_127 (as ff21888242871839275222246405745257275088548364400416034343698204186575808495616 FF0) ) saux_127 )))
(assert (= (as ff0 FF0) (ff.mul (ff.add (as ff21888242871839275222246405745257275088548364400416034343698204186575808495616 FF0) saux_128 ) saux_128 )))
(assert (= (as ff0 FF0) (ff.mul (ff.add saux_129 (as ff21888242871839275222246405745257275088548364400416034343698204186575808495616 FF0) ) saux_129 )))
(assert (= (as ff0 FF0) (ff.mul (ff.add (as ff21888242871839275222246405745257275088548364400416034343698204186575808495616 FF0) saux_130 ) saux_130 )))
(assert (= (as ff0 FF0) (ff.mul (ff.add (as ff21888242871839275222246405745257275088548364400416034343698204186575808495616 FF0) saux_131 ) saux_131 )))
(assert (= (as ff0 FF0) (ff.mul (ff.add (as ff21888242871839275222246405745257275088548364400416034343698204186575808495616 FF0) saux_132 ) saux_132 )))
(assert (= (as ff0 FF0) (ff.mul (ff.add (as ff21888242871839275222246405745257275088548364400416034343698204186575808495616 FF0) saux_133 ) saux_133 )))
(assert (= (as ff0 FF0) (ff.mul (ff.add saux_134 (as ff21888242871839275222246405745257275088548364400416034343698204186575808495616 FF0) ) saux_134 )))
(assert (= (as ff0 FF0) (ff.mul (ff.add saux_135 (as ff21888242871839275222246405745257275088548364400416034343698204186575808495616 FF0) ) saux_135 )))
(assert (= (ff.add (ff.mul saux_162 (as ff21888242871839275222246405745257275088548364400416034343698204186575741386753 FF0)) (ff.mul saux_176 (as ff21888242871839275222246405745257275088548364400416034343698204186575808495361 FF0)) (ff.mul saux_150 (as ff21888242871839275222246405745257275088548364400416034343698204186575808479233 FF0)) (ff.mul saux_143 (as ff21888242871839275222246405745257275088548364400416034343698204186575808495489 FF0)) (ff.mul saux_122 (as ff524288 FF0)) (ff.mul saux_149 (as ff21888242871839275222246405745257275088548364400416034343698204186575808487425 FF0)) (ff.mul saux_158 (as ff21888242871839275222246405745257275088548364400416034343698204186575804301313 FF0)) (ff.mul saux_185 (as ff21888242871839275222246405745257275088548364400416034343698204186575808364545 FF0)) (ff.mul saux_166 (as ff21888242871839275222246405745257275088548364400416034343698204186574734753793 FF0)) (ff.mul saux_167 (as ff21888242871839275222246405745257275088548364400416034343698204186573661011969 FF0)) (ff.mul saux_161 (as ff21888242871839275222246405745257275088548364400416034343698204186575774941185 FF0)) (ff.mul saux_165 (as ff21888242871839275222246405745257275088548364400416034343698204186575271624705 FF0)) (ff.mul saux_113 (as ff1024 FF0)) (ff.mul saux_191 (as ff21888242871839275222246405745257275088548364400416034343698204186575800107009 FF0)) (ff.mul saux_156 (as ff21888242871839275222246405745257275088548364400416034343698204186575807447041 FF0)) (ff.mul saux_170 (as ff21888242871839275222246405745257275088548364400416034343698204186575808495613 FF0)) (ff.mul saux_127 (as ff16777216 FF0)) (ff.mul saux_183 (as ff21888242871839275222246405745257275088548364400416034343698204186575808462849 FF0)) (ff.mul saux_178 (as ff21888242871839275222246405745257275088548364400416034343698204186575808494593 FF0)) (ff.mul saux_152 (as ff21888242871839275222246405745257275088548364400416034343698204186575808430081 FF0)) (ff.mul saux_105 (as ff4 FF0)) (ff.mul saux_190 (as ff21888242871839275222246405745257275088548364400416034343698204186575804301313 FF0)) (ff.mul saux_188 (as ff21888242871839275222246405745257275088548364400416034343698204186575807447041 FF0)) (ff.mul saux_116 (as ff8192 FF0)) (ff.mul saux_117 (as ff16384 FF0)) (ff.mul saux_181 (as ff21888242871839275222246405745257275088548364400416034343698204186575808487425 FF0)) (ff.mul saux_151 (as ff21888242871839275222246405745257275088548364400416034343698204186575808462849 FF0)) (ff.mul saux_140 (as ff21888242871839275222246405745257275088548364400416034343698204186575808495601 FF0)) (ff.mul saux_112 (as ff512 FF0)) (ff.mul saux_192 (as ff21888242871839275222246405745257275088548364400416034343698204186575791718401 FF0)) (ff.mul saux_107 (as ff16 FF0)) (ff.mul saux_147 (as ff21888242871839275222246405745257275088548364400416034343698204186575808493569 FF0)) (ff.mul saux_142 (as ff21888242871839275222246405745257275088548364400416034343698204186575808495553 FF0)) (ff.mul saux_138 (as ff21888242871839275222246405745257275088548364400416034343698204186575808495613 FF0)) (ff.mul saux_196 (as ff21888242871839275222246405745257275088548364400416034343698204186575540060161 FF0)) (ff.mul saux_173 (as ff21888242871839275222246405745257275088548364400416034343698204186575808495585 FF0)) (ff.mul saux_134 (as ff2147483648 FF0)) (ff.mul saux_187 (as ff21888242871839275222246405745257275088548364400416034343698204186575807971329 FF0)) (ff.mul saux_194 (as ff21888242871839275222246405745257275088548364400416034343698204186575741386753 FF0)) (ff.mul saux_128 (as ff33554432 FF0)) (ff.mul saux_119 (as ff65536 FF0)) (ff.mul saux_110 (as ff128 FF0)) (ff.mul saux_132 (as ff536870912 FF0)) (ff.mul saux_198 (as ff21888242871839275222246405745257275088548364400416034343698204186574734753793 FF0)) (ff.mul saux_197 (as ff21888242871839275222246405745257275088548364400416034343698204186575271624705 FF0)) (ff.mul saux_199 (as ff21888242871839275222246405745257275088548364400416034343698204186573661011969 FF0)) (ff.mul saux_169 (as ff21888242871839275222246405745257275088548364400416034343698204186575808495615 FF0)) (ff.mul saux_139 (as ff21888242871839275222246405745257275088548364400416034343698204186575808495609 FF0)) (ff.mul saux_126 (as ff8388608 FF0)) (ff.mul saux_184 (as ff21888242871839275222246405745257275088548364400416034343698204186575808430081 FF0)) (ff.mul saux_175 (as ff21888242871839275222246405745257275088548364400416034343698204186575808495489 FF0)) (ff.mul saux_145 (as ff21888242871839275222246405745257275088548364400416034343698204186575808495105 FF0)) (ff.mul saux_123 (as ff1048576 FF0)) (ff.mul saux_177 (as ff21888242871839275222246405745257275088548364400416034343698204186575808495105 FF0)) (ff.mul saux_159 (as ff21888242871839275222246405745257275088548364400416034343698204186575800107009 FF0)) (ff.mul saux_163 (as ff21888242871839275222246405745257275088548364400416034343698204186575674277889 FF0)) (ff.mul saux_137 (as ff21888242871839275222246405745257275088548364400416034343698204186575808495615 FF0)) (ff.mul saux_186 (as ff21888242871839275222246405745257275088548364400416034343698204186575808233473 FF0)) (ff.mul saux_111 (as ff256 FF0)) (ff.mul saux_120 (as ff131072 FF0)) (ff.mul saux_124 (as ff2097152 FF0)) (ff.mul saux_172 (as ff21888242871839275222246405745257275088548364400416034343698204186575808495601 FF0)) (ff.mul saux_193 (as ff21888242871839275222246405745257275088548364400416034343698204186575774941185 FF0)) (ff.mul saux_141 (as ff21888242871839275222246405745257275088548364400416034343698204186575808495585 FF0)) (ff.mul saux_160 (as ff21888242871839275222246405745257275088548364400416034343698204186575791718401 FF0)) (ff.mul saux_146 (as ff21888242871839275222246405745257275088548364400416034343698204186575808494593 FF0)) (ff.mul saux_195 (as ff21888242871839275222246405745257275088548364400416034343698204186575674277889 FF0)) (ff.mul saux_174 (as ff21888242871839275222246405745257275088548364400416034343698204186575808495553 FF0)) (ff.mul saux_180 (as ff21888242871839275222246405745257275088548364400416034343698204186575808491521 FF0)) (ff.mul saux_104 (as ff2 FF0)) (ff.mul saux_155 (as ff21888242871839275222246405745257275088548364400416034343698204186575807971329 FF0)) (ff.mul saux_115 (as ff4096 FF0)) (ff.mul saux_168 (as ff21888242871839275222246405745257275088548364400416034343698204186575808495616 FF0)) (ff.mul saux_171 (as ff21888242871839275222246405745257275088548364400416034343698204186575808495609 FF0)) (ff.mul saux_154 (as ff21888242871839275222246405745257275088548364400416034343698204186575808233473 FF0)) (ff.mul saux_189 (as ff21888242871839275222246405745257275088548364400416034343698204186575806398465 FF0)) (ff.mul saux_106 (as ff8 FF0)) saux_103 (ff.mul saux_121 (as ff262144 FF0)) (ff.mul saux_129 (as ff67108864 FF0)) (ff.mul saux_153 (as ff21888242871839275222246405745257275088548364400416034343698204186575808364545 FF0)) (ff.mul saux_109 (as ff64 FF0)) (ff.mul saux_164 (as ff21888242871839275222246405745257275088548364400416034343698204186575540060161 FF0)) (ff.mul saux_118 (as ff32768 FF0)) (ff.mul saux_135 (as ff4294967296 FF0)) (ff.mul saux_108 (as ff32 FF0)) (ff.mul saux_133 (as ff1073741824 FF0)) (ff.mul saux_130 (as ff134217728 FF0)) (ff.mul saux_179 (as ff21888242871839275222246405745257275088548364400416034343698204186575808493569 FF0)) (ff.mul saux_136 (as ff21888242871839275222246405745257275088548364400416034343698204186575808495616 FF0)) (ff.mul saux_148 (as ff21888242871839275222246405745257275088548364400416034343698204186575808491521 FF0)) (ff.mul saux_131 (as ff268435456 FF0)) (ff.mul saux_125 (as ff4194304 FF0)) (ff.mul saux_182 (as ff21888242871839275222246405745257275088548364400416034343698204186575808479233 FF0)) (ff.mul saux_114 (as ff2048 FF0)) (ff.mul saux_157 (as ff21888242871839275222246405745257275088548364400416034343698204186575806398465 FF0)) (ff.mul saux_144 (as ff21888242871839275222246405745257275088548364400416034343698204186575808495361 FF0)) ) (as ff0 FF0)))
(assert (and  (= s_136 saux_136)  (= s_137 saux_137)  (= s_138 saux_138)  (= s_139 saux_139)  (= s_140 saux_140)  (= s_141 saux_141)  (= s_142 saux_142)  (= s_143 saux_143)  (= s_144 saux_144)  (= s_145 saux_145)  (= s_146 saux_146)  (= s_147 saux_147)  (= s_148 saux_148)  (= s_149 saux_149)  (= s_150 saux_150)  (= s_151 saux_151)  (= s_152 saux_152)  (= s_153 saux_153)  (= s_154 saux_154)  (= s_155 saux_155)  (= s_156 saux_156)  (= s_157 saux_157)  (= s_158 saux_158)  (= s_159 saux_159)  (= s_160 saux_160)  (= s_161 saux_161)  (= s_162 saux_162)  (= s_163 saux_163)  (= s_164 saux_164)  (= s_165 saux_165)  (= s_166 saux_166)  (= s_167 saux_167)  (= s_168 saux_168)  (= s_169 saux_169)  (= s_170 saux_170)  (= s_171 saux_171)  (= s_172 saux_172)  (= s_173 saux_173)  (= s_174 saux_174)  (= s_175 saux_175)  (= s_176 saux_176)  (= s_177 saux_177)  (= s_178 saux_178)  (= s_179 saux_179)  (= s_180 saux_180)  (= s_181 saux_181)  (= s_182 saux_182)  (= s_183 saux_183)  (= s_184 saux_184)  (= s_185 saux_185)  (= s_186 saux_186)  (= s_187 saux_187)  (= s_188 saux_188)  (= s_189 saux_189)  (= s_190 saux_190)  (= s_191 saux_191)  (= s_192 saux_192)  (= s_193 saux_193)  (= s_194 saux_194)  (= s_195 saux_195)  (= s_196 saux_196)  (= s_197 saux_197)  (= s_198 saux_198)  (= s_199 saux_199) ))
(assert (not (and  (= s_103 saux_103)  (= s_104 saux_104)  (= s_105 saux_105)  (= s_106 saux_106)  (= s_107 saux_107)  (= s_108 saux_108)  (= s_109 saux_109)  (= s_110 saux_110)  (= s_111 saux_111)  (= s_112 saux_112)  (= s_113 saux_113)  (= s_114 saux_114)  (= s_115 saux_115)  (= s_116 saux_116)  (= s_117 saux_117)  (= s_118 saux_118)  (= s_119 saux_119)  (= s_120 saux_120)  (= s_121 saux_121)  (= s_122 saux_122)  (= s_123 saux_123)  (= s_124 saux_124)  (= s_125 saux_125)  (= s_126 saux_126)  (= s_127 saux_127)  (= s_128 saux_128)  (= s_129 saux_129)  (= s_130 saux_130)  (= s_131 saux_131)  (= s_132 saux_132)  (= s_133 saux_133)  (= s_134 saux_134)  (= s_135 saux_135) )))
(check-sat)
